(declare-fun temp934_1 () (_ BitVec 64))
(declare-fun var79569 () (_ BitVec 64))
(declare-fun k!0 () Bool)
(declare-fun ARGNAME_input1_NAMEEND_DIM () (_ BitVec 64))
(declare-fun ARGNAME_input2_NAMEEND_DIM () (_ BitVec 64))
(declare-fun temp934_2 () (_ BitVec 64))
(declare-fun var79623 () (_ BitVec 64))
(declare-fun var204300 () (_ BitVec 64))
(declare-fun temp934_4 () (_ BitVec 64))
(declare-fun temp934_3 () (_ BitVec 64))
(declare-fun var267251 () (_ BitVec 64))
(declare-fun var267252 () (_ BitVec 64))
(declare-fun temp934_5 () (_ BitVec 64))
(declare-fun temp934_6 () (_ BitVec 64))
(declare-fun var336917 () (_ BitVec 64))
(declare-fun var402464 () (_ BitVec 64))
(declare-fun var204318 () (_ BitVec 64))
(declare-fun temp934_7 () (_ BitVec 64))
(declare-fun var79724 () (_ BitVec 64))
(declare-fun temp934_8 () (_ BitVec 64))
(declare-fun temp934_9 () (_ BitVec 64))
(declare-fun ARGNAME_input1_NAMEEND_DIMSIZE
             ()
             (Array (_ BitVec 64) (_ BitVec 64)))
(declare-fun temp934_10 () (_ BitVec 64))
(declare-fun temp934_11 () (_ BitVec 64))
(declare-fun temp934_12 () (_ BitVec 64))
(declare-fun temp934_13 () (_ BitVec 64))
(declare-fun temp934_14 () (_ BitVec 64))
(declare-fun temp934_15 () (_ BitVec 64))
(declare-fun temp934_16 () (_ BitVec 64))
(declare-fun temp934_17 () (_ BitVec 64))
(declare-fun temp934_18 () (_ BitVec 64))
(declare-fun temp934_19 () (_ BitVec 64))
(declare-fun temp934_20 () (_ BitVec 64))
(declare-fun temp934_21 () (_ BitVec 64))
(declare-fun temp934_22 () (_ BitVec 64))
(declare-fun temp934_23 () (_ BitVec 64))
(declare-fun temp934_24 () (_ BitVec 64))
(declare-fun temp934_25 () (_ BitVec 64))
(declare-fun temp934_26 () (_ BitVec 64))
(declare-fun temp934_27 () (_ BitVec 64))
(declare-fun temp934_28 () (_ BitVec 64))
(declare-fun var79725 () (_ BitVec 64))
(declare-fun temp934_29 () (_ BitVec 64))
(declare-fun var66592 () (_ BitVec 64))
(declare-fun temp934_30 () (_ BitVec 64))
(declare-fun temp934_31 () (_ BitVec 64))
(declare-fun ARGNAME_weight_NAMEEND_DIMSIZE
             ()
             (Array (_ BitVec 64) (_ BitVec 64)))
(declare-fun temp934_32 () (_ BitVec 64))
(declare-fun temp934_33 () (_ BitVec 64))
(declare-fun temp934_34 () (_ BitVec 64))
(declare-fun temp934_35 () (_ BitVec 64))
(declare-fun temp934_36 () (_ BitVec 64))
(declare-fun temp934_37 () (_ BitVec 64))
(declare-fun temp934_38 () (_ BitVec 64))
(declare-fun temp934_39 () (_ BitVec 64))
(declare-fun temp934_40 () (_ BitVec 64))
(declare-fun temp934_41 () (_ BitVec 64))
(declare-fun temp934_42 () (_ BitVec 64))
(declare-fun temp934_43 () (_ BitVec 64))
(declare-fun temp934_44 () (_ BitVec 64))
(declare-fun temp934_45 () (_ BitVec 64))
(declare-fun temp934_46 () (_ BitVec 64))
(declare-fun temp934_47 () (_ BitVec 64))
(declare-fun temp934_48 () (_ BitVec 64))
(declare-fun ARGNAME_weight_NAMEEND_DIM () (_ BitVec 64))
(declare-fun temp934_49 () (_ BitVec 64))
(declare-fun temp934_50 () (_ BitVec 64))
(declare-fun var79727 () (_ BitVec 64))
(declare-fun var79728 () (_ BitVec 64))
(declare-fun temp934_51 () (_ BitVec 64))
(declare-fun temp934_52 () (_ BitVec 64))
(declare-fun var79776 () (_ BitVec 64))
(declare-fun temp934_53 () (_ BitVec 64))
(declare-fun temp934_54 () (_ BitVec 64))
(declare-fun ARGNAME_input2_NAMEEND_DIMSIZE
             ()
             (Array (_ BitVec 64) (_ BitVec 64)))
(declare-fun temp934_55 () (_ BitVec 64))
(declare-fun temp934_56 () (_ BitVec 64))
(declare-fun temp934_57 () (_ BitVec 64))
(declare-fun temp934_58 () (_ BitVec 64))
(declare-fun temp934_59 () (_ BitVec 64))
(declare-fun temp934_60 () (_ BitVec 64))
(declare-fun temp934_61 () (_ BitVec 64))
(declare-fun temp934_62 () (_ BitVec 64))
(declare-fun temp934_63 () (_ BitVec 64))
(declare-fun temp934_64 () (_ BitVec 64))
(declare-fun temp934_65 () (_ BitVec 64))
(declare-fun temp934_66 () (_ BitVec 64))
(declare-fun temp934_67 () (_ BitVec 64))
(declare-fun temp934_68 () (_ BitVec 64))
(declare-fun temp934_69 () (_ BitVec 64))
(declare-fun temp934_70 () (_ BitVec 64))
(declare-fun temp934_71 () (_ BitVec 64))
(declare-fun temp934_72 () (_ BitVec 64))
(declare-fun temp934_73 () (_ BitVec 64))
(declare-fun var79777 () (_ BitVec 64))
(declare-fun temp934_74 () (_ BitVec 64))
(declare-fun var66492 () (_ BitVec 64))
(declare-fun temp934_75 () (_ BitVec 64))
(declare-fun temp934_76 () (_ BitVec 64))
(declare-fun temp934_77 () (_ BitVec 64))
(declare-fun var79778 () (_ BitVec 64))
(declare-fun var79779 () (_ BitVec 64))
(declare-fun temp934_78 () (_ BitVec 64))
(declare-fun temp934_79 () (_ BitVec 64))
(declare-fun var65961 () (_ BitVec 64))
(declare-fun temp934_80 () (_ BitVec 64))
(declare-fun temp934_81 () (_ BitVec 64))
(declare-fun ARGNAME_bias_NAMEEND_DIMSIZE
             ()
             (Array (_ BitVec 64) (_ BitVec 64)))
(declare-fun temp934_82 () (_ BitVec 64))
(declare-fun temp934_83 () (_ BitVec 64))
(declare-fun temp934_84 () (_ BitVec 64))
(declare-fun temp934_85 () (_ BitVec 64))
(declare-fun temp934_86 () (_ BitVec 64))
(declare-fun temp934_87 () (_ BitVec 64))
(declare-fun temp934_88 () (_ BitVec 64))
(declare-fun temp934_89 () (_ BitVec 64))
(declare-fun temp934_90 () (_ BitVec 64))
(declare-fun temp934_91 () (_ BitVec 64))
(declare-fun temp934_92 () (_ BitVec 64))
(declare-fun temp934_93 () (_ BitVec 64))
(declare-fun temp934_94 () (_ BitVec 64))
(declare-fun temp934_95 () (_ BitVec 64))
(declare-fun temp934_96 () (_ BitVec 64))
(declare-fun temp934_97 () (_ BitVec 64))
(declare-fun temp934_98 () (_ BitVec 64))
(declare-fun ARGNAME_bias_NAMEEND_DIM () (_ BitVec 64))
(declare-fun temp934_99 () (_ BitVec 64))
(declare-fun temp934_100 () (_ BitVec 64))
(declare-fun var79827 () (_ BitVec 64))
(declare-fun temp934_101 () (_ BitVec 64))
(declare-fun temp934_102 () (_ BitVec 64))
(declare-fun temp934_103 () (_ BitVec 64))
(declare-fun temp934_104 () (_ BitVec 64))
(declare-fun var79828 () (_ BitVec 64))
(declare-fun var79829 () (_ BitVec 64))
(declare-fun temp934_105 () (_ BitVec 64))
(declare-fun temp934_106 () (_ BitVec 64))
(declare-fun temp934_107 () (_ BitVec 64))
(declare-fun temp934_108 () (_ BitVec 64))
(declare-fun temp934_109 () (_ BitVec 64))
(declare-fun var79903 () (_ BitVec 64))
(declare-fun temp934_110 () (_ BitVec 64))
(declare-fun var3023325 () (_ BitVec 64))
(declare-fun temp934_112 () (_ BitVec 64))
(declare-fun temp934_111 () (_ BitVec 64))
(declare-fun temp934_113 () (_ BitVec 64))
(declare-fun var67207 () (_ BitVec 64))
(declare-fun temp934_114 () (_ BitVec 64))
(declare-fun temp934_115 () (_ BitVec 64))
(declare-fun temp934_116 () (_ BitVec 64))
(declare-fun var79915 () (_ BitVec 64))
(declare-fun temp934_117 () (_ BitVec 64))
(declare-fun temp934_118 () (_ BitVec 64))
(declare-fun temp934_119 () (_ BitVec 64))
(declare-fun temp934_120 () (_ BitVec 64))
(declare-fun var79938 () (_ BitVec 64))
(declare-fun temp934_122 () (_ BitVec 64))
(declare-fun temp934_121 () (_ BitVec 64))
(declare-fun temp934_124 () (_ BitVec 64))
(declare-fun temp934_123 () (_ BitVec 64))
(declare-fun var4533243 () (_ BitVec 64))
(declare-fun temp934_125 () (_ BitVec 64))
(declare-fun var4533374 () (_ BitVec 64))
(declare-fun temp934_127 () (_ BitVec 64))
(declare-fun temp934_126 () (_ BitVec 64))
(declare-fun temp934_128 () (_ BitVec 64))
(declare-fun var5318818 () (_ BitVec 64))
(declare-fun temp934_129 () (_ BitVec 64))
(declare-fun var5973063 () (_ BitVec 64))
(declare-fun temp934_131 () (_ BitVec 64))
(declare-fun temp934_130 () (_ BitVec 64))
(declare-fun temp934_132 () (_ BitVec 64))
(declare-fun var6957218 () (_ BitVec 64))
(declare-fun temp934_133 () (_ BitVec 64))
(declare-fun var7611463 () (_ BitVec 64))
(declare-fun temp934_135 () (_ BitVec 64))
(declare-fun temp934_134 () (_ BitVec 64))
(declare-fun temp934_136 () (_ BitVec 64))
(declare-fun var8595618 () (_ BitVec 64))
(declare-fun temp934_137 () (_ BitVec 64))
(declare-fun var9249863 () (_ BitVec 64))
(declare-fun temp934_139 () (_ BitVec 64))
(declare-fun temp934_138 () (_ BitVec 64))
(declare-fun temp934_140 () (_ BitVec 64))
(declare-fun var10234018 () (_ BitVec 64))
(declare-fun temp934_141 () (_ BitVec 64))
(declare-fun var10888263 () (_ BitVec 64))
(declare-fun temp934_143 () (_ BitVec 64))
(declare-fun temp934_142 () (_ BitVec 64))
(declare-fun temp934_144 () (_ BitVec 64))
(declare-fun var11871253 () (_ BitVec 64))
(declare-fun var11936800 () (_ BitVec 64))
(declare-fun temp934_145 () (_ BitVec 64))
(declare-fun var4533542 () (_ BitVec 64))
(declare-fun temp934_146 () (_ BitVec 64))
(declare-fun var4533583 () (_ BitVec 64))
(declare-fun var4533617 () (_ BitVec 64))
(declare-fun var4533671 () (_ BitVec 64))
(declare-fun var15081033 () (_ BitVec 64))
(declare-fun var15408713 () (_ BitVec 64))
(declare-fun var15736393 () (_ BitVec 64))
(declare-fun temp934_147 () (_ BitVec 64))
(declare-fun ARGNAME_weight_NAMEEND_NUMELEMENT () (_ BitVec 64))
(declare-fun var4533720 () (_ BitVec 64))
(declare-fun temp934_148 () (_ BitVec 64))
(declare-fun var16850505 () (_ BitVec 64))
(declare-fun temp934_150 () (_ BitVec 64))
(declare-fun temp934_149 () (_ BitVec 64))
(declare-fun temp934_151 () (_ BitVec 64))
(declare-fun var17310741 () (_ BitVec 64))
(declare-fun var17376288 () (_ BitVec 64))
(declare-fun var17772587 () (_ BitVec 64))
(declare-fun temp934_152 () (_ BitVec 64))
(declare-fun var17772589 () (_ BitVec 64))
(declare-fun var17838123 () (_ BitVec 64))
(declare-fun temp934_153 () (_ BitVec 64))
(declare-fun var17838125 () (_ BitVec 64))
(declare-fun var18362411 () (_ BitVec 64))
(declare-fun temp934_154 () (_ BitVec 64))
(declare-fun var18362413 () (_ BitVec 64))
(declare-fun temp934_155 () (_ BitVec 64))
(declare-fun var19735623 () (_ BitVec 64))
(declare-fun temp934_157 () (_ BitVec 64))
(declare-fun temp934_156 () (_ BitVec 64))
(declare-fun temp934_158 () (_ BitVec 64))
(declare-fun var20522005 () (_ BitVec 64))
(declare-fun temp934_159 () (_ BitVec 64))
(declare-fun var18683626 () (_ BitVec 64))
(declare-fun var18683596 () (_ BitVec 64))
(declare-fun var18683595 () (_ BitVec 64))
(declare-fun temp934_161 () (_ BitVec 64))
(declare-fun temp934_160 () (_ BitVec 64))
(declare-fun temp934_162 () (_ BitVec 64))
(declare-fun var18684104 () (_ BitVec 64))
(declare-fun temp934_163 () (_ BitVec 64))
(declare-fun var18684038 () (_ BitVec 64))
(declare-fun var18684037 () (_ BitVec 64))
(declare-fun var18684116 () (_ BitVec 64))
(declare-fun var18684152 () (_ BitVec 64))
(declare-fun temp934_164 () (_ BitVec 64))
(declare-fun var18684136 () (_ BitVec 64))
(declare-fun var18684135 () (_ BitVec 64))
(declare-fun temp934_166 () (_ BitVec 64))
(declare-fun temp934_165 () (_ BitVec 64))
(declare-fun temp934_168 () (_ BitVec 64))
(declare-fun temp934_167 () (_ BitVec 64))
(assert (= var79569
   (ite (= ARGNAME_input1_NAMEEND_DIM ARGNAME_input2_NAMEEND_DIM)
        #x0000000000000001
        #x0000000000000000)))
(assert (= temp934_1 #x0000000000000001))
(assert (= var79569 temp934_1))
(assert (= temp934_2 #xffffffffffffffff))
(assert (= var79623 (bvadd ARGNAME_input1_NAMEEND_DIM temp934_2)))
(assert (= var204300 var79623))
(assert (= temp934_4 #x0000000000000000))
(assert (= temp934_3 temp934_4))
(assert (= var267251 var204300))
(assert (= var267252
   (ite (bvslt temp934_3 var267251) #x0000000000000001 #x0000000000000000)))
(assert (= temp934_5 (ite (= var267252 #x0000000000000001) var204300 temp934_3)))
(assert (= temp934_6 #x0000000000000000))
(assert (= var336917 temp934_6))
(assert (= var402464 var336917))
(assert (= var204318 var402464))
(assert (= temp934_7 #xffffffffffffffff))
(assert (= var79724 (bvadd ARGNAME_input1_NAMEEND_DIM temp934_7)))
(assert (= temp934_8 #x0000000000000000))
(assert (= temp934_9 temp934_8))
(assert (= temp934_10 (select ARGNAME_input1_NAMEEND_DIMSIZE temp934_9)))
(assert (= temp934_11 #x0000000000000001))
(assert (= temp934_12 temp934_11))
(assert (= temp934_13 (select ARGNAME_input1_NAMEEND_DIMSIZE temp934_12)))
(assert (= temp934_14 #x0000000000000002))
(assert (= temp934_15 temp934_14))
(assert (= temp934_16 (select ARGNAME_input1_NAMEEND_DIMSIZE temp934_15)))
(assert (= temp934_17 #x0000000000000003))
(assert (= temp934_18 temp934_17))
(assert (= temp934_19 (select ARGNAME_input1_NAMEEND_DIMSIZE temp934_18)))
(assert (= temp934_20 #x0000000000000004))
(assert (= temp934_21 temp934_20))
(assert (= temp934_22 (select ARGNAME_input1_NAMEEND_DIMSIZE temp934_21)))
(assert (= temp934_23 #x0000000000000005))
(assert (= temp934_24 temp934_23))
(assert (= temp934_25 (select ARGNAME_input1_NAMEEND_DIMSIZE temp934_24)))
(assert (= temp934_26 #x0000000000000000))
(assert (= temp934_27
   (ite (bvslt var79724 temp934_26)
        (bvadd ARGNAME_input1_NAMEEND_DIM var79724)
        var79724)))
(assert (= temp934_28 (select ARGNAME_input1_NAMEEND_DIMSIZE temp934_27)))
(assert (= var79725 temp934_28))
(assert (bvslt (ite (bvslt var79724 temp934_26)
            (bvadd ARGNAME_input1_NAMEEND_DIM var79724)
            var79724)
       ARGNAME_input1_NAMEEND_DIM))
(assert (= temp934_29 #x0000000000000001))
(assert (= var66592 temp934_29))
(assert (= temp934_30 #x0000000000000000))
(assert (= temp934_31 temp934_30))
(assert (= temp934_32 (select ARGNAME_weight_NAMEEND_DIMSIZE temp934_31)))
(assert (= temp934_33 #x0000000000000001))
(assert (= temp934_34 temp934_33))
(assert (= temp934_35 (select ARGNAME_weight_NAMEEND_DIMSIZE temp934_34)))
(assert (= temp934_36 #x0000000000000002))
(assert (= temp934_37 temp934_36))
(assert (= temp934_38 (select ARGNAME_weight_NAMEEND_DIMSIZE temp934_37)))
(assert (= temp934_39 #x0000000000000003))
(assert (= temp934_40 temp934_39))
(assert (= temp934_41 (select ARGNAME_weight_NAMEEND_DIMSIZE temp934_40)))
(assert (= temp934_42 #x0000000000000004))
(assert (= temp934_43 temp934_42))
(assert (= temp934_44 (select ARGNAME_weight_NAMEEND_DIMSIZE temp934_43)))
(assert (= temp934_45 #x0000000000000005))
(assert (= temp934_46 temp934_45))
(assert (= temp934_47 (select ARGNAME_weight_NAMEEND_DIMSIZE temp934_46)))
(assert (= temp934_48 #x0000000000000000))
(assert (= temp934_49
   (ite (bvslt var66592 temp934_48)
        (bvadd ARGNAME_weight_NAMEEND_DIM var66592)
        var66592)))
(assert (= temp934_50 (select ARGNAME_weight_NAMEEND_DIMSIZE temp934_49)))
(assert (= var79727 temp934_50))
(assert (bvslt (ite (bvslt var66592 temp934_48)
            (bvadd ARGNAME_weight_NAMEEND_DIM var66592)
            var66592)
       ARGNAME_weight_NAMEEND_DIM))
(assert (= var79728 (ite (= var79725 var79727) #x0000000000000001 #x0000000000000000)))
(assert (= temp934_51 #x0000000000000001))
(assert (= var79728 temp934_51))
(assert (= temp934_52 #xffffffffffffffff))
(assert (= var79776 (bvadd ARGNAME_input2_NAMEEND_DIM temp934_52)))
(assert (= temp934_53 #x0000000000000000))
(assert (= temp934_54 temp934_53))
(assert (= temp934_55 (select ARGNAME_input2_NAMEEND_DIMSIZE temp934_54)))
(assert (= temp934_56 #x0000000000000001))
(assert (= temp934_57 temp934_56))
(assert (= temp934_58 (select ARGNAME_input2_NAMEEND_DIMSIZE temp934_57)))
(assert (= temp934_59 #x0000000000000002))
(assert (= temp934_60 temp934_59))
(assert (= temp934_61 (select ARGNAME_input2_NAMEEND_DIMSIZE temp934_60)))
(assert (= temp934_62 #x0000000000000003))
(assert (= temp934_63 temp934_62))
(assert (= temp934_64 (select ARGNAME_input2_NAMEEND_DIMSIZE temp934_63)))
(assert (= temp934_65 #x0000000000000004))
(assert (= temp934_66 temp934_65))
(assert (= temp934_67 (select ARGNAME_input2_NAMEEND_DIMSIZE temp934_66)))
(assert (= temp934_68 #x0000000000000005))
(assert (= temp934_69 temp934_68))
(assert (= temp934_70 (select ARGNAME_input2_NAMEEND_DIMSIZE temp934_69)))
(assert (= temp934_71 #x0000000000000000))
(assert (= temp934_72
   (ite (bvslt var79776 temp934_71)
        (bvadd ARGNAME_input2_NAMEEND_DIM var79776)
        var79776)))
(assert (= temp934_73 (select ARGNAME_input2_NAMEEND_DIMSIZE temp934_72)))
(assert (= var79777 temp934_73))
(assert (bvslt (ite (bvslt var79776 temp934_71)
            (bvadd ARGNAME_input2_NAMEEND_DIM var79776)
            var79776)
       ARGNAME_input2_NAMEEND_DIM))
(assert (= temp934_74 #x0000000000000002))
(assert (= var66492 temp934_74))
(assert (= temp934_75 #x0000000000000000))
(assert (= temp934_76
   (ite (bvslt var66492 temp934_75)
        (bvadd ARGNAME_weight_NAMEEND_DIM var66492)
        var66492)))
(assert (= temp934_77 (select ARGNAME_weight_NAMEEND_DIMSIZE temp934_76)))
(assert (= var79778 temp934_77))
(assert (bvslt (ite (bvslt var66492 temp934_75)
            (bvadd ARGNAME_weight_NAMEEND_DIM var66492)
            var66492)
       ARGNAME_weight_NAMEEND_DIM))
(assert (= var79779 (ite (= var79777 var79778) #x0000000000000001 #x0000000000000000)))
(assert (= temp934_78 #x0000000000000001))
(assert (= var79779 temp934_78))
(assert (= temp934_79 #x0000000000000000))
(assert (= var65961 temp934_79))
(assert (= temp934_80 #x0000000000000000))
(assert (= temp934_81 temp934_80))
(assert (= temp934_82 (select ARGNAME_bias_NAMEEND_DIMSIZE temp934_81)))
(assert (= temp934_83 #x0000000000000001))
(assert (= temp934_84 temp934_83))
(assert (= temp934_85 (select ARGNAME_bias_NAMEEND_DIMSIZE temp934_84)))
(assert (= temp934_86 #x0000000000000002))
(assert (= temp934_87 temp934_86))
(assert (= temp934_88 (select ARGNAME_bias_NAMEEND_DIMSIZE temp934_87)))
(assert (= temp934_89 #x0000000000000003))
(assert (= temp934_90 temp934_89))
(assert (= temp934_91 (select ARGNAME_bias_NAMEEND_DIMSIZE temp934_90)))
(assert (= temp934_92 #x0000000000000004))
(assert (= temp934_93 temp934_92))
(assert (= temp934_94 (select ARGNAME_bias_NAMEEND_DIMSIZE temp934_93)))
(assert (= temp934_95 #x0000000000000005))
(assert (= temp934_96 temp934_95))
(assert (= temp934_97 (select ARGNAME_bias_NAMEEND_DIMSIZE temp934_96)))
(assert (= temp934_98 #x0000000000000000))
(assert (= temp934_99
   (ite (bvslt var65961 temp934_98)
        (bvadd ARGNAME_bias_NAMEEND_DIM var65961)
        var65961)))
(assert (= temp934_100 (select ARGNAME_bias_NAMEEND_DIMSIZE temp934_99)))
(assert (= var79827 temp934_100))
(assert (bvslt (ite (bvslt var65961 temp934_98)
            (bvadd ARGNAME_bias_NAMEEND_DIM var65961)
            var65961)
       ARGNAME_bias_NAMEEND_DIM))
(assert (= temp934_101 #x0000000000000000))
(assert (= var65961 temp934_101))
(assert (= temp934_102 #x0000000000000000))
(assert (= temp934_103
   (ite (bvslt var65961 temp934_102)
        (bvadd ARGNAME_weight_NAMEEND_DIM var65961)
        var65961)))
(assert (= temp934_104 (select ARGNAME_weight_NAMEEND_DIMSIZE temp934_103)))
(assert (= var79828 temp934_104))
(assert (bvslt (ite (bvslt var65961 temp934_102)
            (bvadd ARGNAME_weight_NAMEEND_DIM var65961)
            var65961)
       ARGNAME_weight_NAMEEND_DIM))
(assert (= var79829 (ite (= var79827 var79828) #x0000000000000001 #x0000000000000000)))
(assert (= temp934_105 #x0000000000000001))
(assert (= var79829 temp934_105))
(assert (= temp934_106 #x0000000000000000))
(assert (= var65961 temp934_106))
(assert (= temp934_107 #x0000000000000000))
(assert (= temp934_108
   (ite (bvslt var65961 temp934_107)
        (bvadd ARGNAME_weight_NAMEEND_DIM var65961)
        var65961)))
(assert (= temp934_109 (select ARGNAME_weight_NAMEEND_DIMSIZE temp934_108)))
(assert (= var79903 temp934_109))
(assert (bvslt (ite (bvslt var65961 temp934_107)
            (bvadd ARGNAME_weight_NAMEEND_DIM var65961)
            var65961)
       ARGNAME_weight_NAMEEND_DIM))
(assert (= temp934_110 #x0000000000000001))
(assert (= var3023325 temp934_110))
(assert (= temp934_112 #xffffffffffffffff))
(assert (= temp934_111 temp934_112))
(assert (= temp934_113 #xffffffffffffffff))
(assert (= var67207 temp934_113))
(assert (= temp934_114 #x0000000000000000))
(assert (= temp934_115
   (ite (bvslt var67207 temp934_114)
        (bvadd ARGNAME_input1_NAMEEND_DIM var67207)
        var67207)))
(assert (= temp934_116 (select ARGNAME_input1_NAMEEND_DIMSIZE temp934_115)))
(assert (= var79915 temp934_116))
(assert (bvslt (ite (bvslt var67207 temp934_114)
            (bvadd ARGNAME_input1_NAMEEND_DIM var67207)
            var67207)
       ARGNAME_input1_NAMEEND_DIM))
(assert (= temp934_117 #xffffffffffffffff))
(assert (= var67207 temp934_117))
(assert (= temp934_118 #x0000000000000000))
(assert (= temp934_119
   (ite (bvslt var67207 temp934_118)
        (bvadd ARGNAME_input2_NAMEEND_DIM var67207)
        var67207)))
(assert (= temp934_120 (select ARGNAME_input2_NAMEEND_DIMSIZE temp934_119)))
(assert (= var79938 temp934_120))
(assert (bvslt (ite (bvslt var67207 temp934_118)
            (bvadd ARGNAME_input2_NAMEEND_DIM var67207)
            var67207)
       ARGNAME_input2_NAMEEND_DIM))
(assert (= temp934_122 #x0000000000000003))
(assert (= temp934_121 temp934_122))
(assert (= temp934_124 #x0000000000000003))
(assert (= temp934_123 temp934_124))
(assert (= var4533243 var66592))
(assert (= temp934_125 #x000000000000003f))
(assert (= var4533374 (bvlshr var4533243 temp934_125)))
(assert (= temp934_127 #x0000000000000000))
(assert (= temp934_126 temp934_127))
(assert (= temp934_128 #x0000000000000000))
(assert (= var5318818 temp934_128))
(assert (= temp934_129 #x0000000000000001))
(assert (= var5973063 temp934_129))
(assert (= temp934_131 #x0000000000000000))
(assert (= temp934_130 temp934_131))
(assert (= temp934_132 #x0000000000000000))
(assert (= var6957218 temp934_132))
(assert (= temp934_133 #x0000000000000001))
(assert (= var7611463 temp934_133))
(assert (= temp934_135 #x0000000000000000))
(assert (= temp934_134 temp934_135))
(assert (= temp934_136 #x0000000000000000))
(assert (= var8595618 temp934_136))
(assert (= temp934_137 #x0000000000000001))
(assert (= var9249863 temp934_137))
(assert (= temp934_139 #x0000000000000000))
(assert (= temp934_138 temp934_139))
(assert (= temp934_140 #x0000000000000000))
(assert (= var10234018 temp934_140))
(assert (= temp934_141 #x0000000000000001))
(assert (= var10888263 temp934_141))
(assert (= temp934_143 #x0000000000000000))
(assert (= temp934_142 temp934_143))
(assert (= temp934_144 #x0000000000000000))
(assert (= var11871253 temp934_144))
(assert (= var11936800 var11871253))
(assert (= temp934_145 #xffffffffffffffff))
(assert (= var4533542 temp934_145))
(assert (= temp934_146 #x0000000000000000))
(assert (= var4533583 temp934_146))
(assert (= var4533617 var4533583))
(assert (= var4533671 var4533617))
(assert (= var15081033 var4533243))
(assert (= var15408713 var4533243))
(assert (= var15736393 var4533243))
(assert (= temp934_147 #x0000000000000000))
(assert (= var4533720
   (ite (= ARGNAME_weight_NAMEEND_NUMELEMENT temp934_147)
        #x0000000000000001
        #x0000000000000000)))
(assert (= temp934_148 #x0000000000000000))
(assert (= var4533720 temp934_148))
(assert (= var16850505 var4533243))
(assert (= temp934_150 #x0000000000000000))
(assert (= temp934_149 temp934_150))
(assert (= temp934_151 #x0000000000000000))
(assert (= var17310741 temp934_151))
(assert (= var17376288 var17310741))
(assert (= var17772587 var4533243))
(assert (= temp934_152 #x0000000000000001))
(assert (= var17772589 temp934_152))
(assert (= var17838123 var4533243))
(assert (= temp934_153 #x0000000000000001))
(assert (= var17838125 temp934_153))
(assert (= var18362411 var4533243))
(assert (= temp934_154 #x0000000000000001))
(assert (= var18362413 temp934_154))
(assert (= temp934_155 #x0000000000000001))
(assert (= var19735623 temp934_155))
(assert (= temp934_157 #x0000000000000000))
(assert (= temp934_156 temp934_157))
(assert (= temp934_158 #x0000000000000000))
(assert (= var20522005 temp934_158))
(assert (= temp934_159 #x0000000000000001))
(assert (= var18683626 temp934_159))
(assert (= var18683596 var18683626))
(assert (= var18683595 var18683596))
(assert (= temp934_161 #xffffffffffffffff))
(assert (= temp934_160 temp934_161))
(assert (= temp934_162 #x0000000000000000))
(assert (= var18684104 temp934_162))
(assert (= temp934_163 #x0000000000000001))
(assert (= var18684038 (bvadd var18684104 temp934_163)))
(assert (= var18684037 var18684038))
(assert (= var18684116 var18684037))
(assert (= var18684152 var18684116))
(assert (= temp934_164 #x0000000000000001))
(assert (= var18684136 (bvadd var18684152 temp934_164)))
(assert (= var18684135 var18684136))
(assert (= temp934_166 #x0000000000000003))
(assert (= temp934_165 temp934_166))
(assert (= temp934_168 #x0000000000000003))
(assert (= temp934_167 temp934_168))
(model-add temp934_1 () (_ BitVec 64) #x0000000000000001)
(model-add var79569 () (_ BitVec 64) #x0000000000000001)
(model-del k!0)
(model-add ARGNAME_input1_NAMEEND_DIM
           ()
           (_ BitVec 64)
           (ite k!0
                ARGNAME_input2_NAMEEND_DIM
                (bvnot ARGNAME_input2_NAMEEND_DIM)))




